p tw 288 1024
1 33
2 34
3 35
4 36
5 37
6 38
7 39
8 40
9 41
10 42
11 43
12 44
13 45
14 46
15 47
16 48
17 49
18 50
19 51
20 52
21 53
22 54
23 55
24 56
25 57
26 58
27 59
28 60
29 61
30 62
31 63
32 64
33 84
33 91
33 108
33 127
33 128
34 95
34 104
34 108
34 109
34 110
35 67
35 105
35 111
35 112
35 113
36 100
36 104
36 105
36 106
36 107
37 71
37 101
37 129
37 132
37 133
38 111
38 122
38 127
38 139
38 143
39 119
39 148
39 151
39 158
39 160
40 65
40 75
40 76
40 77
40 78
41 92
41 118
41 134
41 137
41 138
42 85
42 89
42 134
42 135
42 136
43 75
43 79
43 80
43 81
43 82
44 66
44 91
44 92
44 93
44 94
45 77
45 106
45 121
45 125
45 126
46 109
46 139
46 140
46 141
46 142
47 80
47 114
47 118
47 119
47 120
48 65
48 66
48 67
48 68
48 69
49 68
49 140
49 146
49 153
49 155
50 95
50 96
50 97
50 98
50 99
51 125
51 141
51 156
51 158
51 159
52 76
52 83
52 88
52 89
52 90
53 116
53 130
53 150
53 151
53 152
54 72
54 112
54 144
54 146
54 147
55 79
55 114
55 115
55 116
55 117
56 73
56 98
56 150
56 156
56 157
57 70
57 96
57 129
57 130
57 131
58 115
58 121
58 122
58 123
58 124
59 70
59 71
59 72
59 73
59 74
60 83
60 84
60 85
60 86
60 87
61 93
61 97
61 123
61 144
61 145
62 81
62 102
62 137
62 153
62 154
63 86
63 132
63 135
63 148
63 149
64 88
64 100
64 101
64 102
64 103
65 66
65 67
65 68
65 69
65 75
65 76
65 77
65 78
66 67
66 68
66 69
66 91
66 92
66 93
66 94
67 68
67 69
67 105
67 111
67 112
67 113
68 69
68 140
68 146
68 153
68 155
69 161
69 162
69 163
69 164
69 165
70 71
70 72
70 73
70 74
70 96
70 129
70 130
70 131
71 72
71 73
71 74
71 101
71 129
71 132
71 133
72 73
72 74
72 112
72 144
72 146
72 147
73 74
73 98
73 150
73 156
73 157
74 166
74 167
74 168
74 169
74 170
75 76
75 77
75 78
75 79
75 80
75 81
75 82
76 77
76 78
76 83
76 88
76 89
76 90
77 78
77 106
77 121
77 125
77 126
78 161
78 171
78 172
78 173
78 174
79 80
79 81
79 82
79 114
79 115
79 116
79 117
80 81
80 82
80 114
80 118
80 119
80 120
81 82
81 102
81 137
81 153
81 154
82 171
82 175
82 176
82 177
82 178
83 84
83 85
83 86
83 87
83 88
83 89
83 90
84 85
84 86
84 87
84 91
84 108
84 127
84 128
85 86
85 87
85 89
85 134
85 135
85 136
86 87
86 132
86 135
86 148
86 149
87 179
87 180
87 181
87 182
87 183
88 89
88 90
88 100
88 101
88 102
88 103
89 90
89 134
89 135
89 136
90 172
90 179
90 184
90 185
90 186
91 92
91 93
91 94
91 108
91 127
91 128
92 93
92 94
92 118
92 134
92 137
92 138
93 94
93 97
93 123
93 144
93 145
94 162
94 187
94 188
94 189
94 190
95 96
95 97
95 98
95 99
95 104
95 108
95 109
95 110
96 97
96 98
96 99
96 129
96 130
96 131
97 98
97 99
97 123
97 144
97 145
98 99
98 150
98 156
98 157
99 191
99 192
99 193
99 194
99 195
100 101
100 102
100 103
100 104
100 105
100 106
100 107
101 102
101 103
101 129
101 132
101 133
102 103
102 137
102 153
102 154
103 184
103 196
103 197
103 198
103 199
104 105
104 106
104 107
104 108
104 109
104 110
105 106
105 107
105 111
105 112
105 113
106 107
106 121
106 125
106 126
107 196
107 200
107 201
107 202
107 203
108 109
108 110
108 127
108 128
109 110
109 139
109 140
109 141
109 142
110 191
110 200
110 204
110 205
110 206
111 112
111 113
111 122
111 127
111 139
111 143
112 113
112 144
112 146
112 147
113 163
113 201
113 207
113 208
113 209
114 115
114 116
114 117
114 118
114 119
114 120
115 116
115 117
115 121
115 122
115 123
115 124
116 117
116 130
116 150
116 151
116 152
117 175
117 210
117 211
117 212
117 213
118 119
118 120
118 134
118 137
118 138
119 120
119 148
119 151
119 158
119 160
120 176
120 210
120 214
120 215
120 216
121 122
121 123
121 124
121 125
121 126
122 123
122 124
122 127
122 139
122 143
123 124
123 144
123 145
124 211
124 217
124 218
124 219
124 220
125 126
125 141
125 156
125 158
125 159
126 173
126 202
126 217
126 221
126 222
127 128
127 139
127 143
128 180
128 187
128 204
128 223
128 224
129 130
129 131
129 132
129 133
130 131
130 150
130 151
130 152
131 166
131 192
131 225
131 226
131 227
132 133
132 135
132 148
132 149
133 167
133 197
133 225
133 228
133 229
134 135
134 136
134 137
134 138
135 136
135 148
135 149
136 181
136 185
136 230
136 231
136 232
137 138
137 153
137 154
138 188
138 214
138 230
138 233
138 234
139 140
139 141
139 142
139 143
140 141
140 142
140 146
140 153
140 155
141 142
141 156
141 158
141 159
142 205
142 235
142 236
142 237
142 238
143 207
143 218
143 223
143 235
143 239
144 145
144 146
144 147
145 189
145 193
145 219
145 240
145 241
146 147
146 153
146 155
147 168
147 208
147 240
147 242
147 243
148 149
148 151
148 158
148 160
149 182
149 228
149 231
149 244
149 245
150 151
150 152
150 156
150 157
151 152
151 158
151 160
152 212
152 226
152 246
152 247
152 248
153 154
153 155
154 177
154 198
154 233
154 249
154 250
155 164
155 236
155 242
155 249
155 251
156 157
156 158
156 159
157 169
157 194
157 246
157 252
157 253
158 159
158 160
159 221
159 237
159 252
159 254
159 255
160 215
160 244
160 247
160 254
160 256
161 162
161 163
161 164
161 165
161 171
161 172
161 173
161 174
162 163
162 164
162 165
162 187
162 188
162 189
162 190
163 164
163 165
163 201
163 207
163 208
163 209
164 165
164 236
164 242
164 249
164 251
165 273
166 167
166 168
166 169
166 170
166 192
166 225
166 226
166 227
167 168
167 169
167 170
167 197
167 225
167 228
167 229
168 169
168 170
168 208
168 240
168 242
168 243
169 170
169 194
169 246
169 252
169 253
170 262
171 172
171 173
171 174
171 175
171 176
171 177
171 178
172 173
172 174
172 179
172 184
172 185
172 186
173 174
173 202
173 217
173 221
173 222
174 281
175 176
175 177
175 178
175 210
175 211
175 212
175 213
176 177
176 178
176 210
176 214
176 215
176 216
177 178
177 198
177 233
177 249
177 250
178 278
179 180
179 181
179 182
179 183
179 184
179 185
179 186
180 181
180 182
180 183
180 187
180 204
180 223
180 224
181 182
181 183
181 185
181 230
181 231
181 232
182 183
182 228
182 231
182 244
182 245
183 261
184 185
184 186
184 196
184 197
184 198
184 199
185 186
185 230
185 231
185 232
186 269
187 188
187 189
187 190
187 204
187 223
187 224
188 189
188 190
188 214
188 230
188 233
188 234
189 190
189 193
189 219
189 240
189 241
190 277
191 192
191 193
191 194
191 195
191 200
191 204
191 205
191 206
192 193
192 194
192 195
192 225
192 226
192 227
193 194
193 195
193 219
193 240
193 241
194 195
194 246
194 252
194 253
195 271
196 197
196 198
196 199
196 200
196 201
196 202
196 203
197 198
197 199
197 225
197 228
197 229
198 199
198 233
198 249
198 250
199 257
200 201
200 202
200 203
200 204
200 205
200 206
201 202
201 203
201 207
201 208
201 209
202 203
202 217
202 221
202 222
203 285
204 205
204 206
204 223
204 224
205 206
205 235
205 236
205 237
205 238
206 287
207 208
207 209
207 218
207 223
207 235
207 239
208 209
208 240
208 242
208 243
209 286
210 211
210 212
210 213
210 214
210 215
210 216
211 212
211 213
211 217
211 218
211 219
211 220
212 213
212 226
212 246
212 247
212 248
213 266
214 215
214 216
214 230
214 233
214 234
215 216
215 244
215 247
215 254
215 256
216 274
217 218
217 219
217 220
217 221
217 222
218 219
218 220
218 223
218 235
218 239
219 220
219 240
219 241
220 263
221 222
221 237
221 252
221 254
221 255
222 276
223 224
223 235
223 239
224 288
225 226
225 227
225 228
225 229
226 227
226 246
226 247
226 248
227 264
228 229
228 231
228 244
228 245
229 284
230 231
230 232
230 233
230 234
231 232
231 244
231 245
232 279
233 234
233 249
233 250
234 280
235 236
235 237
235 238
235 239
236 237
236 238
236 242
236 249
236 251
237 238
237 252
237 254
237 255
238 275
239 283
240 241
240 242
240 243
241 260
242 243
242 249
242 251
243 267
244 245
244 247
244 254
244 256
245 258
246 247
246 248
246 252
246 253
247 248
247 254
247 256
248 268
249 250
249 251
250 259
251 272
252 253
252 254
252 255
253 265
254 255
254 256
255 270
256 282
